NAME          ClpDefau  FREE
ROWS
 N  OBJROW
 L  ZMUNI1_PCT
 L  ZMUNI2_PCT
 L  ZMUNI3_PCT
 L  ZMUNI4_PCT
 L  ZMUNI5_PCT
 L  ZMUNI6_PCT
 L  ZMUNI7_PCT
 L  ZMUNI8_PCT
 L  ZMUNI9_PCT
COLUMNS
    QMUNI1 OBJROW 1.          
    QMUNI1 ZMUNI1_PCT 27930.61734 
    QMUNI1 ZMUNI2_PCT 1868.152618 
    QMUNI1 ZMUNI3_PCT 4434.15642  
    QMUNI1 ZMUNI4_PCT 3157.711    
    QMUNI1 ZMUNI5_PCT 220.03651   
    QMUNI1 ZMUNI6_PCT 364.30358   
    QMUNI1 ZMUNI7_PCT 1379.4899   
    QMUNI1 ZMUNI8_PCT 1126.28937  
    QMUNI1 ZMUNI9_PCT 411.76081   
    QMUNI2 OBJROW 1.          
    QMUNI2 ZMUNI1_PCT 2195.93048  
    QMUNI2 ZMUNI2_PCT 32986.269682
    QMUNI2 ZMUNI3_PCT 3060.5793   
    QMUNI2 ZMUNI4_PCT 3110.0273   
    QMUNI2 ZMUNI5_PCT 601.89962   
    QMUNI2 ZMUNI6_PCT 663.94806   
    QMUNI2 ZMUNI7_PCT 1489.73465  
    QMUNI2 ZMUNI8_PCT 1839.78081  
    QMUNI2 ZMUNI9_PCT 1941.53786  
    QMUNI3 OBJROW 1.          
    QMUNI3 ZMUNI1_PCT 4682.44553  
    QMUNI3 ZMUNI2_PCT 2941.209078 
    QMUNI3 ZMUNI3_PCT 29580.956699
    QMUNI3 ZMUNI4_PCT 5470.3712   
    QMUNI3 ZMUNI5_PCT 523.94867   
    QMUNI3 ZMUNI6_PCT 627.37465   
    QMUNI3 ZMUNI7_PCT 1569.08035  
    QMUNI3 ZMUNI8_PCT 1543.95104  
    QMUNI3 ZMUNI9_PCT 901.34144   
    QMUNI4 OBJROW 1.          
    QMUNI4 ZMUNI1_PCT 3407.78828  
    QMUNI4 ZMUNI2_PCT 3120.550513 
    QMUNI4 ZMUNI3_PCT 5720.889569 
    QMUNI4 ZMUNI4_PCT 99509.0484  
    QMUNI4 ZMUNI5_PCT 376.74904   
    QMUNI4 ZMUNI6_PCT 411.27205   
    QMUNI4 ZMUNI7_PCT 1228.23715  
    QMUNI4 ZMUNI8_PCT 1360.27336  
    QMUNI4 ZMUNI9_PCT 1110.66103  
    QMUNI5 OBJROW 1.          
    QMUNI5 ZMUNI1_PCT 860.45265   
    QMUNI5 ZMUNI2_PCT 762.018561  
    QMUNI5 ZMUNI3_PCT 820.56522   
    QMUNI5 ZMUNI4_PCT 706.1958    
    QMUNI5 ZMUNI5_PCT 31378.59106 
    QMUNI5 ZMUNI6_PCT 3620.86296  
    QMUNI5 ZMUNI7_PCT 1440.14359  
    QMUNI5 ZMUNI8_PCT 1418.87665  
    QMUNI5 ZMUNI9_PCT 1531.14796  
    QMUNI6 OBJROW 1.          
    QMUNI6 ZMUNI1_PCT 405.74074   
    QMUNI6 ZMUNI2_PCT 195.685029  
    QMUNI6 ZMUNI3_PCT 315.39202   
    QMUNI6 ZMUNI4_PCT 241.1842    
    QMUNI6 ZMUNI5_PCT 2992.66577  
    QMUNI6 ZMUNI6_PCT 30286.35978 
    QMUNI6 ZMUNI7_PCT 483.98972   
    QMUNI6 ZMUNI8_PCT 236.3205    
    QMUNI6 ZMUNI9_PCT 66.78105    
    QMUNI7 OBJROW 1.          
    QMUNI7 ZMUNI1_PCT 1619.05289  
    QMUNI7 ZMUNI2_PCT 922.739506  
    QMUNI7 ZMUNI3_PCT 1423.62118  
    QMUNI7 ZMUNI4_PCT 1087.5702   
    QMUNI7 ZMUNI5_PCT 369.88258   
    QMUNI7 ZMUNI6_PCT 566.10107   
    QMUNI7 ZMUNI7_PCT 25704.28848 
    QMUNI7 ZMUNI8_PCT 2095.03174  
    QMUNI7 ZMUNI9_PCT 515.10334   
    QMUNI8 OBJROW 1.          
    QMUNI8 ZMUNI1_PCT 1270.67566  
    QMUNI8 ZMUNI2_PCT 1069.754362 
    QMUNI8 ZMUNI3_PCT 1286.73315  
    QMUNI8 ZMUNI4_PCT 999.7368    
    QMUNI8 ZMUNI5_PCT 227.06985   
    QMUNI8 ZMUNI6_PCT 320.57762   
    QMUNI8 ZMUNI7_PCT 2066.80298  
    QMUNI8 ZMUNI8_PCT 24992.65671 
    QMUNI8 ZMUNI9_PCT 1087.83245  
    QMUNI9 OBJROW 1.          
    QMUNI9 ZMUNI1_PCT 833.77362   
    QMUNI9 ZMUNI2_PCT 1208.32026  
    QMUNI9 ZMUNI3_PCT 951.71929   
    QMUNI9 ZMUNI4_PCT 825.119     
    QMUNI9 ZMUNI5_PCT 710.58273   
    QMUNI9 ZMUNI6_PCT 702.52418   
    QMUNI9 ZMUNI7_PCT 989.34174   
    QMUNI9 ZMUNI8_PCT 1551.58043  
    QMUNI9 ZMUNI9_PCT 24104.98858 
RHS
    RHS ZMUNI1_PCT  -0.56523212
    RHS ZMUNI2_PCT 0.1127196686
    RHS ZMUNI3_PCT  -0.32701996
    RHS ZMUNI4_PCT  -1.73909434
    RHS ZMUNI5_PCT 1.2566202558
    RHS ZMUNI6_PCT 0.971070127 
    RHS ZMUNI7_PCT 0.9647354729
    RHS ZMUNI8_PCT 0.6740677101
    RHS ZMUNI9_PCT -0.016190258
BOUNDS
 LO BOUND QMUNI1 -0.001453526
 UP BOUND QMUNI1      1.1e+10
 LO BOUND QMUNI2 -0.001051312
 UP BOUND QMUNI2      1.1e+10
 LO BOUND QMUNI3 -0.001136649
 UP BOUND QMUNI3      1.1e+10
 LO BOUND QMUNI4 -0.000382567
 UP BOUND QMUNI4      1.1e+10
 LO BOUND QMUNI5 -0.001046643
 UP BOUND QMUNI5      1.1e+10
 LO BOUND QMUNI6 -0.001238263
 UP BOUND QMUNI6      1.1e+10
 LO BOUND QMUNI7 -0.000899447
 UP BOUND QMUNI7      1.1e+10
 LO BOUND QMUNI8 -0.000990756
 UP BOUND QMUNI8      1.1e+10
 LO BOUND QMUNI9 -0.001204482
 UP BOUND QMUNI9      1.1e+10
ENDATA
